proyfinal/src/viki/013/andrea/andrea-localstore/experimentInOfficeAgust.take6/worker_5/589c81bb-c4f4-4b35-98d7-79e9c86692b8.als.cnf.out
Reading from standard input... Use '--help' for help.
============================[ Problem Statistics ]=============================
|                                                                             |
|  Number of variables:         87638                                         |
|  Number of clauses:          161767                                         |
|  Parse time:                   0.04 s                                       |
|                                                                             |
============================[ Search Statistics ]==============================
| Conflicts |          ORIGINAL         |          LEARNT          | Progress |
|           |    Vars  Clauses Literals |    Limit  Clauses Lit/Cl |          |
===============================================================================
|       100 |   62311   104937   262237 |    38476      100     22 | 28.900 % |
|       250 |   62311   104937   262237 |    42324      250     33 | 28.900 % |
|       475 |   51701   104853   262044 |    46557      444     63 | 41.006 % |
|       812 |   51694    74305   186559 |    51212      758     58 | 41.014 % |
|      1318 |   51658    74272   186475 |    56334     1260     58 | 41.055 % |
|      2077 |   51643    74115   186066 |    61967     2001     61 | 41.072 % |
|      3216 |   51633    74071   185976 |    68164     3137     55 | 41.084 % |
|      4924 |   51528    73680   185042 |    74980     3682     53 | 41.204 % |
|      7486 |   51438    73233   183966 |    82478     6227     55 | 41.306 % |
|     11330 |   51276    72480   182181 |    90726     9335     56 | 41.491 % |
===============================================================================
restarts              : 61
conflicts             : 13884          (8868 /sec)
decisions             : 45441          (0.00 % random) (29025 /sec)
propagations          : 18522166       (11830759 /sec)
conflict literals     : 739815         (48.31 % deleted)
Memory used           : 26.57 MB
CPU time              : 1.56559 s

UNSATISFIABLE
